Route #1: 132 109 17 19 130 80 115 125 128
Route #2: 85 106 45 21 46 99 104 57 119
Route #3: 129 116 89 113 25 105 41 34 58
Route #4: 118 91 51 16 14 60 95
Route #5: 76 82 133 12 124 33 86 72 3
Route #6: 127 48 64 117 49 69 1 92 31
Route #7: 83 38 50 35 26 74 87 78
Route #8: 56 123 110 54 32 62 10 103
Route #9: 29 61 71 120 111 36 43 79 112
Route #10: 59 96 18 73 39 2 9 47
Route #11: 100 122 11 114 131 101 52 40
Route #12: 108 6 97 5 121 7 68 30 8 44 67 20 126 55 22 27 4 70 107 84 81 15 63 13
Route #13: 24 37 88 102 94 93 42 65 28 75 98 23 77 53 66 90
Cost 10916.000000